\ LP format - for model browsing. Use MPS format to capture full model detail.
Minimize
  0 x_jk[1,Core1] + 0 x_jk[1,Core2] + 0 x_jk[1,Core3] + 0 x_jk[1,Core4]
   + 0 x_jk[1,Core5] + 0 x_jk[1,Core6] + 0 x_jk[13,Core1]
   + 0 x_jk[13,Core2] + 0 x_jk[13,Core3] + 0 x_jk[13,Core4]
   + 0 x_jk[13,Core5] + 0 x_jk[13,Core6] + 0 x_jk[5,Core1]
   + 0 x_jk[5,Core2] + 0 x_jk[5,Core3] + 0 x_jk[5,Core4] + 0 x_jk[5,Core5]
   + 0 x_jk[5,Core6] + 0 x_jk[27,Core1] + 0 x_jk[27,Core2]
   + 0 x_jk[27,Core3] + 0 x_jk[27,Core4] + 0 x_jk[27,Core5]
   + 0 x_jk[27,Core6] + 0 x_jk[4,Core1] + 0 x_jk[4,Core2] + 0 x_jk[4,Core3]
   + 0 x_jk[4,Core4] + 0 x_jk[4,Core5] + 0 x_jk[4,Core6] + 0 x_jk[20,Core1]
   + 0 x_jk[20,Core2] + 0 x_jk[20,Core3] + 0 x_jk[20,Core4]
   + 0 x_jk[20,Core5] + 0 x_jk[20,Core6] + 0 x_jk[45,Core1]
   + 0 x_jk[45,Core2] + 0 x_jk[45,Core3] + 0 x_jk[45,Core4]
   + 0 x_jk[45,Core5] + 0 x_jk[45,Core6] + 0 x_jk[2,Core1]
   + 0 x_jk[2,Core2] + 0 x_jk[2,Core3] + 0 x_jk[2,Core4] + 0 x_jk[2,Core5]
   + 0 x_jk[2,Core6] + 0 x_jk[6,Core1] + 0 x_jk[6,Core2] + 0 x_jk[6,Core3]
   + 0 x_jk[6,Core4] + 0 x_jk[6,Core5] + 0 x_jk[6,Core6] + 0 x_jk[12,Core1]
   + 0 x_jk[12,Core2] + 0 x_jk[12,Core3] + 0 x_jk[12,Core4]
   + 0 x_jk[12,Core5] + 0 x_jk[12,Core6] + 0 x_jk[14,Core1]
   + 0 x_jk[14,Core2] + 0 x_jk[14,Core3] + 0 x_jk[14,Core4]
   + 0 x_jk[14,Core5] + 0 x_jk[14,Core6] + 0 x_jk[15,Core1]
   + 0 x_jk[15,Core2] + 0 x_jk[15,Core3] + 0 x_jk[15,Core4]
   + 0 x_jk[15,Core5] + 0 x_jk[15,Core6] + 0 x_jk[26,Core1]
   + 0 x_jk[26,Core2] + 0 x_jk[26,Core3] + 0 x_jk[26,Core4]
   + 0 x_jk[26,Core5] + 0 x_jk[26,Core6] + 0 x_jk[38,Core1]
   + 0 x_jk[38,Core2] + 0 x_jk[38,Core3] + 0 x_jk[38,Core4]
   + 0 x_jk[38,Core5] + 0 x_jk[38,Core6] + 0 x_jk[3,Core1]
   + 0 x_jk[3,Core2] + 0 x_jk[3,Core3] + 0 x_jk[3,Core4] + 0 x_jk[3,Core5]
   + 0 x_jk[3,Core6] + 0 x_jk[11,Core1] + 0 x_jk[11,Core2]
   + 0 x_jk[11,Core3] + 0 x_jk[11,Core4] + 0 x_jk[11,Core5]
   + 0 x_jk[11,Core6] + 0 x_jk[22,Core1] + 0 x_jk[22,Core2]
   + 0 x_jk[22,Core3] + 0 x_jk[22,Core4] + 0 x_jk[22,Core5]
   + 0 x_jk[22,Core6] + 0 x_jk[30,Core1] + 0 x_jk[30,Core2]
   + 0 x_jk[30,Core3] + 0 x_jk[30,Core4] + 0 x_jk[30,Core5]
   + 0 x_jk[30,Core6] + 0 x_jk[49,Core1] + 0 x_jk[49,Core2]
   + 0 x_jk[49,Core3] + 0 x_jk[49,Core4] + 0 x_jk[49,Core5]
   + 0 x_jk[49,Core6] + 0 x_jk[7,Core1] + 0 x_jk[7,Core2] + 0 x_jk[7,Core3]
   + 0 x_jk[7,Core4] + 0 x_jk[7,Core5] + 0 x_jk[7,Core6] + 0 x_jk[8,Core1]
   + 0 x_jk[8,Core2] + 0 x_jk[8,Core3] + 0 x_jk[8,Core4] + 0 x_jk[8,Core5]
   + 0 x_jk[8,Core6] + 0 x_jk[18,Core1] + 0 x_jk[18,Core2]
   + 0 x_jk[18,Core3] + 0 x_jk[18,Core4] + 0 x_jk[18,Core5]
   + 0 x_jk[18,Core6] + 0 x_jk[25,Core1] + 0 x_jk[25,Core2]
   + 0 x_jk[25,Core3] + 0 x_jk[25,Core4] + 0 x_jk[25,Core5]
   + 0 x_jk[25,Core6] + 0 x_jk[33,Core1] + 0 x_jk[33,Core2]
   + 0 x_jk[33,Core3] + 0 x_jk[33,Core4] + 0 x_jk[33,Core5]
   + 0 x_jk[33,Core6] + 0 x_jk[34,Core1] + 0 x_jk[34,Core2]
   + 0 x_jk[34,Core3] + 0 x_jk[34,Core4] + 0 x_jk[34,Core5]
   + 0 x_jk[34,Core6] + 0 x_jk[36,Core1] + 0 x_jk[36,Core2]
   + 0 x_jk[36,Core3] + 0 x_jk[36,Core4] + 0 x_jk[36,Core5]
   + 0 x_jk[36,Core6] + 0 x_jk[41,Core1] + 0 x_jk[41,Core2]
   + 0 x_jk[41,Core3] + 0 x_jk[41,Core4] + 0 x_jk[41,Core5]
   + 0 x_jk[41,Core6] + 0 x_jk[42,Core1] + 0 x_jk[42,Core2]
   + 0 x_jk[42,Core3] + 0 x_jk[42,Core4] + 0 x_jk[42,Core5]
   + 0 x_jk[42,Core6] + 0 x_jk[9,Core1] + 0 x_jk[9,Core2] + 0 x_jk[9,Core3]
   + 0 x_jk[9,Core4] + 0 x_jk[9,Core5] + 0 x_jk[9,Core6] + 0 x_jk[19,Core1]
   + 0 x_jk[19,Core2] + 0 x_jk[19,Core3] + 0 x_jk[19,Core4]
   + 0 x_jk[19,Core5] + 0 x_jk[19,Core6] + 0 x_jk[28,Core1]
   + 0 x_jk[28,Core2] + 0 x_jk[28,Core3] + 0 x_jk[28,Core4]
   + 0 x_jk[28,Core5] + 0 x_jk[28,Core6] + 0 x_jk[31,Core1]
   + 0 x_jk[31,Core2] + 0 x_jk[31,Core3] + 0 x_jk[31,Core4]
   + 0 x_jk[31,Core5] + 0 x_jk[31,Core6] + 0 x_jk[10,Core1]
   + 0 x_jk[10,Core2] + 0 x_jk[10,Core3] + 0 x_jk[10,Core4]
   + 0 x_jk[10,Core5] + 0 x_jk[10,Core6] + 0 x_jk[43,Core1]
   + 0 x_jk[43,Core2] + 0 x_jk[43,Core3] + 0 x_jk[43,Core4]
   + 0 x_jk[43,Core5] + 0 x_jk[43,Core6] + 0 x_jk[24,Core1]
   + 0 x_jk[24,Core2] + 0 x_jk[24,Core3] + 0 x_jk[24,Core4]
   + 0 x_jk[24,Core5] + 0 x_jk[24,Core6] + 0 x_jk[46,Core1]
   + 0 x_jk[46,Core2] + 0 x_jk[46,Core3] + 0 x_jk[46,Core4]
   + 0 x_jk[46,Core5] + 0 x_jk[46,Core6] + 0 x_jk[16,Core1]
   + 0 x_jk[16,Core2] + 0 x_jk[16,Core3] + 0 x_jk[16,Core4]
   + 0 x_jk[16,Core5] + 0 x_jk[16,Core6] + 0 x_jk[23,Core1]
   + 0 x_jk[23,Core2] + 0 x_jk[23,Core3] + 0 x_jk[23,Core4]
   + 0 x_jk[23,Core5] + 0 x_jk[23,Core6] + 0 x_jk[39,Core1]
   + 0 x_jk[39,Core2] + 0 x_jk[39,Core3] + 0 x_jk[39,Core4]
   + 0 x_jk[39,Core5] + 0 x_jk[39,Core6] + 0 x_jk[29,Core1]
   + 0 x_jk[29,Core2] + 0 x_jk[29,Core3] + 0 x_jk[29,Core4]
   + 0 x_jk[29,Core5] + 0 x_jk[29,Core6] + 0 x_jk[50,Core1]
   + 0 x_jk[50,Core2] + 0 x_jk[50,Core3] + 0 x_jk[50,Core4]
   + 0 x_jk[50,Core5] + 0 x_jk[50,Core6] + 0 x_jk[35,Core1]
   + 0 x_jk[35,Core2] + 0 x_jk[35,Core3] + 0 x_jk[35,Core4]
   + 0 x_jk[35,Core5] + 0 x_jk[35,Core6] + 0 x_jk[32,Core1]
   + 0 x_jk[32,Core2] + 0 x_jk[32,Core3] + 0 x_jk[32,Core4]
   + 0 x_jk[32,Core5] + 0 x_jk[32,Core6] + 0 x_jk[47,Core1]
   + 0 x_jk[47,Core2] + 0 x_jk[47,Core3] + 0 x_jk[47,Core4]
   + 0 x_jk[47,Core5] + 0 x_jk[47,Core6] + 0 x_jk[40,Core1]
   + 0 x_jk[40,Core2] + 0 x_jk[40,Core3] + 0 x_jk[40,Core4]
   + 0 x_jk[40,Core5] + 0 x_jk[40,Core6] + 0 x_jk[44,Core1]
   + 0 x_jk[44,Core2] + 0 x_jk[44,Core3] + 0 x_jk[44,Core4]
   + 0 x_jk[44,Core5] + 0 x_jk[44,Core6] + 0 x_jk[src,Core1]
   + 0 x_jk[src,Core2] + 0 x_jk[src,Core3] + 0 x_jk[src,Core4]
   + 0 x_jk[src,Core5] + 0 x_jk[src,Core6] + 0 x_jk[des,Core1]
   + 0 x_jk[des,Core2] + 0 x_jk[des,Core3] + 0 x_jk[des,Core4]
   + 0 x_jk[des,Core5] + 0 x_jk[des,Core6] + 0 x_jk[1,Core1]
   + 0 x_jk[1,Core2] + 0 x_jk[1,Core3] + 0 x_jk[1,Core4] + 0 x_jk[1,Core5]
   + 0 x_jk[1,Core6] + 0 x_jk[13,Core1] + 0 x_jk[13,Core2]
   + 0 x_jk[13,Core3] + 0 x_jk[13,Core4] + 0 x_jk[13,Core5]
   + 0 x_jk[13,Core6] + 0 x_jk[5,Core1] + 0 x_jk[5,Core2] + 0 x_jk[5,Core3]
   + 0 x_jk[5,Core4] + 0 x_jk[5,Core5] + 0 x_jk[5,Core6] + 0 x_jk[27,Core1]
   + 0 x_jk[27,Core2] + 0 x_jk[27,Core3] + 0 x_jk[27,Core4]
   + 0 x_jk[27,Core5] + 0 x_jk[27,Core6] + 0 x_jk[4,Core1]
   + 0 x_jk[4,Core2] + 0 x_jk[4,Core3] + 0 x_jk[4,Core4] + 0 x_jk[4,Core5]
   + 0 x_jk[4,Core6] + 0 x_jk[20,Core1] + 0 x_jk[20,Core2]
   + 0 x_jk[20,Core3] + 0 x_jk[20,Core4] + 0 x_jk[20,Core5]
   + 0 x_jk[20,Core6] + 0 x_jk[45,Core1] + 0 x_jk[45,Core2]
   + 0 x_jk[45,Core3] + 0 x_jk[45,Core4] + 0 x_jk[45,Core5]
   + 0 x_jk[45,Core6] + 0 x_jk[2,Core1] + 0 x_jk[2,Core2] + 0 x_jk[2,Core3]
   + 0 x_jk[2,Core4] + 0 x_jk[2,Core5] + 0 x_jk[2,Core6] + 0 x_jk[6,Core1]
   + 0 x_jk[6,Core2] + 0 x_jk[6,Core3] + 0 x_jk[6,Core4] + 0 x_jk[6,Core5]
   + 0 x_jk[6,Core6] + 0 x_jk[12,Core1] + 0 x_jk[12,Core2]
   + 0 x_jk[12,Core3] + 0 x_jk[12,Core4] + 0 x_jk[12,Core5]
   + 0 x_jk[12,Core6] + 0 x_jk[14,Core1] + 0 x_jk[14,Core2]
   + 0 x_jk[14,Core3] + 0 x_jk[14,Core4] + 0 x_jk[14,Core5]
   + 0 x_jk[14,Core6] + 0 x_jk[15,Core1] + 0 x_jk[15,Core2]
   + 0 x_jk[15,Core3] + 0 x_jk[15,Core4] + 0 x_jk[15,Core5]
   + 0 x_jk[15,Core6] + 0 x_jk[26,Core1] + 0 x_jk[26,Core2]
   + 0 x_jk[26,Core3] + 0 x_jk[26,Core4] + 0 x_jk[26,Core5]
   + 0 x_jk[26,Core6] + 0 x_jk[38,Core1] + 0 x_jk[38,Core2]
   + 0 x_jk[38,Core3] + 0 x_jk[38,Core4] + 0 x_jk[38,Core5]
   + 0 x_jk[38,Core6] + 0 x_jk[3,Core1] + 0 x_jk[3,Core2] + 0 x_jk[3,Core3]
   + 0 x_jk[3,Core4] + 0 x_jk[3,Core5] + 0 x_jk[3,Core6] + 0 x_jk[11,Core1]
   + 0 x_jk[11,Core2] + 0 x_jk[11,Core3] + 0 x_jk[11,Core4]
   + 0 x_jk[11,Core5] + 0 x_jk[11,Core6] + 0 x_jk[22,Core1]
   + 0 x_jk[22,Core2] + 0 x_jk[22,Core3] + 0 x_jk[22,Core4]
   + 0 x_jk[22,Core5] + 0 x_jk[22,Core6] + 0 x_jk[30,Core1]
   + 0 x_jk[30,Core2] + 0 x_jk[30,Core3] + 0 x_jk[30,Core4]
   + 0 x_jk[30,Core5] + 0 x_jk[30,Core6] + 0 x_jk[49,Core1]
   + 0 x_jk[49,Core2] + 0 x_jk[49,Core3] + 0 x_jk[49,Core4]
   + 0 x_jk[49,Core5] + 0 x_jk[49,Core6] + 0 x_jk[7,Core1]
   + 0 x_jk[7,Core2] + 0 x_jk[7,Core3] + 0 x_jk[7,Core4] + 0 x_jk[7,Core5]
   + 0 x_jk[7,Core6] + 0 x_jk[8,Core1] + 0 x_jk[8,Core2] + 0 x_jk[8,Core3]
   + 0 x_jk[8,Core4] + 0 x_jk[8,Core5] + 0 x_jk[8,Core6] + 0 x_jk[18,Core1]
   + 0 x_jk[18,Core2] + 0 x_jk[18,Core3] + 0 x_jk[18,Core4]
   + 0 x_jk[18,Core5] + 0 x_jk[18,Core6] + 0 x_jk[25,Core1]
   + 0 x_jk[25,Core2] + 0 x_jk[25,Core3] + 0 x_jk[25,Core4]
   + 0 x_jk[25,Core5] + 0 x_jk[25,Core6] + 0 x_jk[33,Core1]
   + 0 x_jk[33,Core2] + 0 x_jk[33,Core3] + 0 x_jk[33,Core4]
   + 0 x_jk[33,Core5] + 0 x_jk[33,Core6] + 0 x_jk[34,Core1]
   + 0 x_jk[34,Core2] + 0 x_jk[34,Core3] + 0 x_jk[34,Core4]
   + 0 x_jk[34,Core5] + 0 x_jk[34,Core6] + 0 x_jk[36,Core1]
   + 0 x_jk[36,Core2] + 0 x_jk[36,Core3] + 0 x_jk[36,Core4]
   + 0 x_jk[36,Core5] + 0 x_jk[36,Core6] + 0 x_jk[41,Core1]
   + 0 x_jk[41,Core2] + 0 x_jk[41,Core3] + 0 x_jk[41,Core4]
   + 0 x_jk[41,Core5] + 0 x_jk[41,Core6] + 0 x_jk[42,Core1]
   + 0 x_jk[42,Core2] + 0 x_jk[42,Core3] + 0 x_jk[42,Core4]
   + 0 x_jk[42,Core5] + 0 x_jk[42,Core6] + 0 x_jk[17,Core1]
   + 0 x_jk[17,Core2] + 0 x_jk[17,Core3] + 0 x_jk[17,Core4]
   + 0 x_jk[17,Core5] + 0 x_jk[17,Core6] + 0 x_jk[21,Core1]
   + 0 x_jk[21,Core2] + 0 x_jk[21,Core3] + 0 x_jk[21,Core4]
   + 0 x_jk[21,Core5] + 0 x_jk[21,Core6] + 0 x_jk[37,Core1]
   + 0 x_jk[37,Core2] + 0 x_jk[37,Core3] + 0 x_jk[37,Core4]
   + 0 x_jk[37,Core5] + 0 x_jk[37,Core6] + 0 x_jk[48,Core1]
   + 0 x_jk[48,Core2] + 0 x_jk[48,Core3] + 0 x_jk[48,Core4]
   + 0 x_jk[48,Core5] + 0 x_jk[48,Core6] + 0 x_jk[9,Core1]
   + 0 x_jk[9,Core2] + 0 x_jk[9,Core3] + 0 x_jk[9,Core4] + 0 x_jk[9,Core5]
   + 0 x_jk[9,Core6] + 0 x_jk[19,Core1] + 0 x_jk[19,Core2]
   + 0 x_jk[19,Core3] + 0 x_jk[19,Core4] + 0 x_jk[19,Core5]
   + 0 x_jk[19,Core6] + 0 x_jk[28,Core1] + 0 x_jk[28,Core2]
   + 0 x_jk[28,Core3] + 0 x_jk[28,Core4] + 0 x_jk[28,Core5]
   + 0 x_jk[28,Core6] + 0 x_jk[31,Core1] + 0 x_jk[31,Core2]
   + 0 x_jk[31,Core3] + 0 x_jk[31,Core4] + 0 x_jk[31,Core5]
   + 0 x_jk[31,Core6] + 0 x_jk[10,Core1] + 0 x_jk[10,Core2]
   + 0 x_jk[10,Core3] + 0 x_jk[10,Core4] + 0 x_jk[10,Core5]
   + 0 x_jk[10,Core6] + 0 x_jk[43,Core1] + 0 x_jk[43,Core2]
   + 0 x_jk[43,Core3] + 0 x_jk[43,Core4] + 0 x_jk[43,Core5]
   + 0 x_jk[43,Core6] + 0 x_jk[24,Core1] + 0 x_jk[24,Core2]
   + 0 x_jk[24,Core3] + 0 x_jk[24,Core4] + 0 x_jk[24,Core5]
   + 0 x_jk[24,Core6] + 0 x_jk[46,Core1] + 0 x_jk[46,Core2]
   + 0 x_jk[46,Core3] + 0 x_jk[46,Core4] + 0 x_jk[46,Core5]
   + 0 x_jk[46,Core6] + 0 x_jk[16,Core1] + 0 x_jk[16,Core2]
   + 0 x_jk[16,Core3] + 0 x_jk[16,Core4] + 0 x_jk[16,Core5]
   + 0 x_jk[16,Core6] + 0 x_jk[23,Core1] + 0 x_jk[23,Core2]
   + 0 x_jk[23,Core3] + 0 x_jk[23,Core4] + 0 x_jk[23,Core5]
   + 0 x_jk[23,Core6] + 0 x_jk[39,Core1] + 0 x_jk[39,Core2]
   + 0 x_jk[39,Core3] + 0 x_jk[39,Core4] + 0 x_jk[39,Core5]
   + 0 x_jk[39,Core6] + 0 x_jk[29,Core1] + 0 x_jk[29,Core2]
   + 0 x_jk[29,Core3] + 0 x_jk[29,Core4] + 0 x_jk[29,Core5]
   + 0 x_jk[29,Core6] + 0 x_jk[50,Core1] + 0 x_jk[50,Core2]
   + 0 x_jk[50,Core3] + 0 x_jk[50,Core4] + 0 x_jk[50,Core5]
   + 0 x_jk[50,Core6] + 0 x_jk[35,Core1] + 0 x_jk[35,Core2]
   + 0 x_jk[35,Core3] + 0 x_jk[35,Core4] + 0 x_jk[35,Core5]
   + 0 x_jk[35,Core6] + 0 x_jk[32,Core1] + 0 x_jk[32,Core2]
   + 0 x_jk[32,Core3] + 0 x_jk[32,Core4] + 0 x_jk[32,Core5]
   + 0 x_jk[32,Core6] + 0 x_jk[47,Core1] + 0 x_jk[47,Core2]
   + 0 x_jk[47,Core3] + 0 x_jk[47,Core4] + 0 x_jk[47,Core5]
   + 0 x_jk[47,Core6] + 0 x_jk[40,Core1] + 0 x_jk[40,Core2]
   + 0 x_jk[40,Core3] + 0 x_jk[40,Core4] + 0 x_jk[40,Core5]
   + 0 x_jk[40,Core6] + 0 x_jk[44,Core1] + 0 x_jk[44,Core2]
   + 0 x_jk[44,Core3] + 0 x_jk[44,Core4] + 0 x_jk[44,Core5]
   + 0 x_jk[44,Core6] + 0 x_jk[src,Core1] + 0 x_jk[src,Core2]
   + 0 x_jk[src,Core3] + 0 x_jk[src,Core4] + 0 x_jk[src,Core5]
   + 0 x_jk[src,Core6] + 0 x_jk[des,Core1] + 0 x_jk[des,Core2]
   + 0 x_jk[des,Core3] + 0 x_jk[des,Core4] + 0 x_jk[des,Core5]
   + 0 x_jk[des,Core6] + z_u
Subject To
 R0: x_jk[17,Core1] + x_jk[17,Core2] + x_jk[17,Core3] + x_jk[17,Core4]
   + x_jk[17,Core5] + x_jk[17,Core6] = 1
 R1: x_jk[21,Core1] + x_jk[21,Core2] + x_jk[21,Core3] + x_jk[21,Core4]
   + x_jk[21,Core5] + x_jk[21,Core6] = 1
 R2: x_jk[37,Core1] + x_jk[37,Core2] + x_jk[37,Core3] + x_jk[37,Core4]
   + x_jk[37,Core5] + x_jk[37,Core6] = 1
 R3: x_jk[48,Core1] + x_jk[48,Core2] + x_jk[48,Core3] + x_jk[48,Core4]
   + x_jk[48,Core5] + x_jk[48,Core6] = 1
 R4: 228 x_jk[17,Core1] + 325 x_jk[21,Core1] + 223 x_jk[37,Core1]
   + 135 x_jk[48,Core1] - z_u <= -796
 R5: 234 x_jk[17,Core2] + 268 x_jk[21,Core2] + 390 x_jk[37,Core2]
   + 319 x_jk[48,Core2] - z_u <= -796
 R6: 361 x_jk[17,Core3] + 445 x_jk[21,Core3] + 187 x_jk[37,Core3]
   + 267 x_jk[48,Core3] - z_u <= -796
 R7: 374 x_jk[17,Core4] + 194 x_jk[21,Core4] + 431 x_jk[37,Core4]
   + 179 x_jk[48,Core4] - z_u <= -796
 R8: 370 x_jk[17,Core5] + 322 x_jk[21,Core5] + 298 x_jk[37,Core5]
   + 306 x_jk[48,Core5] - z_u <= -796
 R9: 62 x_jk[17,Core6] + 62 x_jk[21,Core6] + 61 x_jk[37,Core6]
   + 48 x_jk[48,Core6] - z_u <= -796
 R10: 325 x_jk[21,Core1] + 223 x_jk[37,Core1] + 135 x_jk[48,Core1] - z_u
   <= -826
 R11: 268 x_jk[21,Core2] + 390 x_jk[37,Core2] + 319 x_jk[48,Core2] - z_u
   <= -826
 R12: 445 x_jk[21,Core3] + 187 x_jk[37,Core3] + 267 x_jk[48,Core3] - z_u
   <= -826
 R13: 194 x_jk[21,Core4] + 431 x_jk[37,Core4] + 179 x_jk[48,Core4] - z_u
   <= -826
 R14: 322 x_jk[21,Core5] + 298 x_jk[37,Core5] + 306 x_jk[48,Core5] - z_u
   <= -826
 R15: 62 x_jk[21,Core6] + 61 x_jk[37,Core6] + 48 x_jk[48,Core6] - z_u
   <= -826
 R16: 223 x_jk[37,Core1] + 135 x_jk[48,Core1] - z_u <= -826
 R17: 390 x_jk[37,Core2] + 319 x_jk[48,Core2] - z_u <= -826
 R18: 187 x_jk[37,Core3] + 267 x_jk[48,Core3] - z_u <= -826
 R19: 431 x_jk[37,Core4] + 179 x_jk[48,Core4] - z_u <= -826
 R20: 298 x_jk[37,Core5] + 306 x_jk[48,Core5] - z_u <= -826
 R21: 61 x_jk[37,Core6] + 48 x_jk[48,Core6] - z_u <= -826
 R22: 135 x_jk[48,Core1] - z_u <= -826
 R23: 319 x_jk[48,Core2] - z_u <= -826
 R24: 267 x_jk[48,Core3] - z_u <= -826
 R25: 179 x_jk[48,Core4] - z_u <= -826
 R26: 306 x_jk[48,Core5] - z_u <= -826
 R27: 48 x_jk[48,Core6] - z_u <= -826
Bounds
Binaries
 x_jk[1,Core1] x_jk[1,Core2] x_jk[1,Core3] x_jk[1,Core4] x_jk[1,Core5]
 x_jk[1,Core6] x_jk[13,Core1] x_jk[13,Core2] x_jk[13,Core3] x_jk[13,Core4]
 x_jk[13,Core5] x_jk[13,Core6] x_jk[5,Core1] x_jk[5,Core2] x_jk[5,Core3]
 x_jk[5,Core4] x_jk[5,Core5] x_jk[5,Core6] x_jk[27,Core1] x_jk[27,Core2]
 x_jk[27,Core3] x_jk[27,Core4] x_jk[27,Core5] x_jk[27,Core6] x_jk[4,Core1]
 x_jk[4,Core2] x_jk[4,Core3] x_jk[4,Core4] x_jk[4,Core5] x_jk[4,Core6]
 x_jk[20,Core1] x_jk[20,Core2] x_jk[20,Core3] x_jk[20,Core4] x_jk[20,Core5]
 x_jk[20,Core6] x_jk[45,Core1] x_jk[45,Core2] x_jk[45,Core3] x_jk[45,Core4]
 x_jk[45,Core5] x_jk[45,Core6] x_jk[2,Core1] x_jk[2,Core2] x_jk[2,Core3]
 x_jk[2,Core4] x_jk[2,Core5] x_jk[2,Core6] x_jk[6,Core1] x_jk[6,Core2]
 x_jk[6,Core3] x_jk[6,Core4] x_jk[6,Core5] x_jk[6,Core6] x_jk[12,Core1]
 x_jk[12,Core2] x_jk[12,Core3] x_jk[12,Core4] x_jk[12,Core5] x_jk[12,Core6]
 x_jk[14,Core1] x_jk[14,Core2] x_jk[14,Core3] x_jk[14,Core4] x_jk[14,Core5]
 x_jk[14,Core6] x_jk[15,Core1] x_jk[15,Core2] x_jk[15,Core3] x_jk[15,Core4]
 x_jk[15,Core5] x_jk[15,Core6] x_jk[26,Core1] x_jk[26,Core2] x_jk[26,Core3]
 x_jk[26,Core4] x_jk[26,Core5] x_jk[26,Core6] x_jk[38,Core1] x_jk[38,Core2]
 x_jk[38,Core3] x_jk[38,Core4] x_jk[38,Core5] x_jk[38,Core6] x_jk[3,Core1]
 x_jk[3,Core2] x_jk[3,Core3] x_jk[3,Core4] x_jk[3,Core5] x_jk[3,Core6]
 x_jk[11,Core1] x_jk[11,Core2] x_jk[11,Core3] x_jk[11,Core4] x_jk[11,Core5]
 x_jk[11,Core6] x_jk[22,Core1] x_jk[22,Core2] x_jk[22,Core3] x_jk[22,Core4]
 x_jk[22,Core5] x_jk[22,Core6] x_jk[30,Core1] x_jk[30,Core2] x_jk[30,Core3]
 x_jk[30,Core4] x_jk[30,Core5] x_jk[30,Core6] x_jk[49,Core1] x_jk[49,Core2]
 x_jk[49,Core3] x_jk[49,Core4] x_jk[49,Core5] x_jk[49,Core6] x_jk[7,Core1]
 x_jk[7,Core2] x_jk[7,Core3] x_jk[7,Core4] x_jk[7,Core5] x_jk[7,Core6]
 x_jk[8,Core1] x_jk[8,Core2] x_jk[8,Core3] x_jk[8,Core4] x_jk[8,Core5]
 x_jk[8,Core6] x_jk[18,Core1] x_jk[18,Core2] x_jk[18,Core3] x_jk[18,Core4]
 x_jk[18,Core5] x_jk[18,Core6] x_jk[25,Core1] x_jk[25,Core2] x_jk[25,Core3]
 x_jk[25,Core4] x_jk[25,Core5] x_jk[25,Core6] x_jk[33,Core1] x_jk[33,Core2]
 x_jk[33,Core3] x_jk[33,Core4] x_jk[33,Core5] x_jk[33,Core6] x_jk[34,Core1]
 x_jk[34,Core2] x_jk[34,Core3] x_jk[34,Core4] x_jk[34,Core5] x_jk[34,Core6]
 x_jk[36,Core1] x_jk[36,Core2] x_jk[36,Core3] x_jk[36,Core4] x_jk[36,Core5]
 x_jk[36,Core6] x_jk[41,Core1] x_jk[41,Core2] x_jk[41,Core3] x_jk[41,Core4]
 x_jk[41,Core5] x_jk[41,Core6] x_jk[42,Core1] x_jk[42,Core2] x_jk[42,Core3]
 x_jk[42,Core4] x_jk[42,Core5] x_jk[42,Core6] x_jk[17,Core1] x_jk[17,Core2]
 x_jk[17,Core3] x_jk[17,Core4] x_jk[17,Core5] x_jk[17,Core6] x_jk[21,Core1]
 x_jk[21,Core2] x_jk[21,Core3] x_jk[21,Core4] x_jk[21,Core5] x_jk[21,Core6]
 x_jk[37,Core1] x_jk[37,Core2] x_jk[37,Core3] x_jk[37,Core4] x_jk[37,Core5]
 x_jk[37,Core6] x_jk[48,Core1] x_jk[48,Core2] x_jk[48,Core3] x_jk[48,Core4]
 x_jk[48,Core5] x_jk[48,Core6] x_jk[9,Core1] x_jk[9,Core2] x_jk[9,Core3]
 x_jk[9,Core4] x_jk[9,Core5] x_jk[9,Core6] x_jk[19,Core1] x_jk[19,Core2]
 x_jk[19,Core3] x_jk[19,Core4] x_jk[19,Core5] x_jk[19,Core6] x_jk[28,Core1]
 x_jk[28,Core2] x_jk[28,Core3] x_jk[28,Core4] x_jk[28,Core5] x_jk[28,Core6]
 x_jk[31,Core1] x_jk[31,Core2] x_jk[31,Core3] x_jk[31,Core4] x_jk[31,Core5]
 x_jk[31,Core6] x_jk[10,Core1] x_jk[10,Core2] x_jk[10,Core3] x_jk[10,Core4]
 x_jk[10,Core5] x_jk[10,Core6] x_jk[43,Core1] x_jk[43,Core2] x_jk[43,Core3]
 x_jk[43,Core4] x_jk[43,Core5] x_jk[43,Core6] x_jk[24,Core1] x_jk[24,Core2]
 x_jk[24,Core3] x_jk[24,Core4] x_jk[24,Core5] x_jk[24,Core6] x_jk[46,Core1]
 x_jk[46,Core2] x_jk[46,Core3] x_jk[46,Core4] x_jk[46,Core5] x_jk[46,Core6]
 x_jk[16,Core1] x_jk[16,Core2] x_jk[16,Core3] x_jk[16,Core4] x_jk[16,Core5]
 x_jk[16,Core6] x_jk[23,Core1] x_jk[23,Core2] x_jk[23,Core3] x_jk[23,Core4]
 x_jk[23,Core5] x_jk[23,Core6] x_jk[39,Core1] x_jk[39,Core2] x_jk[39,Core3]
 x_jk[39,Core4] x_jk[39,Core5] x_jk[39,Core6] x_jk[29,Core1] x_jk[29,Core2]
 x_jk[29,Core3] x_jk[29,Core4] x_jk[29,Core5] x_jk[29,Core6] x_jk[50,Core1]
 x_jk[50,Core2] x_jk[50,Core3] x_jk[50,Core4] x_jk[50,Core5] x_jk[50,Core6]
 x_jk[35,Core1] x_jk[35,Core2] x_jk[35,Core3] x_jk[35,Core4] x_jk[35,Core5]
 x_jk[35,Core6] x_jk[32,Core1] x_jk[32,Core2] x_jk[32,Core3] x_jk[32,Core4]
 x_jk[32,Core5] x_jk[32,Core6] x_jk[47,Core1] x_jk[47,Core2] x_jk[47,Core3]
 x_jk[47,Core4] x_jk[47,Core5] x_jk[47,Core6] x_jk[40,Core1] x_jk[40,Core2]
 x_jk[40,Core3] x_jk[40,Core4] x_jk[40,Core5] x_jk[40,Core6] x_jk[44,Core1]
 x_jk[44,Core2] x_jk[44,Core3] x_jk[44,Core4] x_jk[44,Core5] x_jk[44,Core6]
 x_jk[src,Core1] x_jk[src,Core2] x_jk[src,Core3] x_jk[src,Core4]
 x_jk[src,Core5] x_jk[src,Core6] x_jk[des,Core1] x_jk[des,Core2]
 x_jk[des,Core3] x_jk[des,Core4] x_jk[des,Core5] x_jk[des,Core6]
 x_jk[1,Core1] x_jk[1,Core2] x_jk[1,Core3] x_jk[1,Core4] x_jk[1,Core5]
 x_jk[1,Core6] x_jk[13,Core1] x_jk[13,Core2] x_jk[13,Core3] x_jk[13,Core4]
 x_jk[13,Core5] x_jk[13,Core6] x_jk[5,Core1] x_jk[5,Core2] x_jk[5,Core3]
 x_jk[5,Core4] x_jk[5,Core5] x_jk[5,Core6] x_jk[27,Core1] x_jk[27,Core2]
 x_jk[27,Core3] x_jk[27,Core4] x_jk[27,Core5] x_jk[27,Core6] x_jk[4,Core1]
 x_jk[4,Core2] x_jk[4,Core3] x_jk[4,Core4] x_jk[4,Core5] x_jk[4,Core6]
 x_jk[20,Core1] x_jk[20,Core2] x_jk[20,Core3] x_jk[20,Core4] x_jk[20,Core5]
 x_jk[20,Core6] x_jk[45,Core1] x_jk[45,Core2] x_jk[45,Core3] x_jk[45,Core4]
 x_jk[45,Core5] x_jk[45,Core6] x_jk[2,Core1] x_jk[2,Core2] x_jk[2,Core3]
 x_jk[2,Core4] x_jk[2,Core5] x_jk[2,Core6] x_jk[6,Core1] x_jk[6,Core2]
 x_jk[6,Core3] x_jk[6,Core4] x_jk[6,Core5] x_jk[6,Core6] x_jk[12,Core1]
 x_jk[12,Core2] x_jk[12,Core3] x_jk[12,Core4] x_jk[12,Core5] x_jk[12,Core6]
 x_jk[14,Core1] x_jk[14,Core2] x_jk[14,Core3] x_jk[14,Core4] x_jk[14,Core5]
 x_jk[14,Core6] x_jk[15,Core1] x_jk[15,Core2] x_jk[15,Core3] x_jk[15,Core4]
 x_jk[15,Core5] x_jk[15,Core6] x_jk[26,Core1] x_jk[26,Core2] x_jk[26,Core3]
 x_jk[26,Core4] x_jk[26,Core5] x_jk[26,Core6] x_jk[38,Core1] x_jk[38,Core2]
 x_jk[38,Core3] x_jk[38,Core4] x_jk[38,Core5] x_jk[38,Core6] x_jk[3,Core1]
 x_jk[3,Core2] x_jk[3,Core3] x_jk[3,Core4] x_jk[3,Core5] x_jk[3,Core6]
 x_jk[11,Core1] x_jk[11,Core2] x_jk[11,Core3] x_jk[11,Core4] x_jk[11,Core5]
 x_jk[11,Core6] x_jk[22,Core1] x_jk[22,Core2] x_jk[22,Core3] x_jk[22,Core4]
 x_jk[22,Core5] x_jk[22,Core6] x_jk[30,Core1] x_jk[30,Core2] x_jk[30,Core3]
 x_jk[30,Core4] x_jk[30,Core5] x_jk[30,Core6] x_jk[49,Core1] x_jk[49,Core2]
 x_jk[49,Core3] x_jk[49,Core4] x_jk[49,Core5] x_jk[49,Core6] x_jk[7,Core1]
 x_jk[7,Core2] x_jk[7,Core3] x_jk[7,Core4] x_jk[7,Core5] x_jk[7,Core6]
 x_jk[8,Core1] x_jk[8,Core2] x_jk[8,Core3] x_jk[8,Core4] x_jk[8,Core5]
 x_jk[8,Core6] x_jk[18,Core1] x_jk[18,Core2] x_jk[18,Core3] x_jk[18,Core4]
 x_jk[18,Core5] x_jk[18,Core6] x_jk[25,Core1] x_jk[25,Core2] x_jk[25,Core3]
 x_jk[25,Core4] x_jk[25,Core5] x_jk[25,Core6] x_jk[33,Core1] x_jk[33,Core2]
 x_jk[33,Core3] x_jk[33,Core4] x_jk[33,Core5] x_jk[33,Core6] x_jk[34,Core1]
 x_jk[34,Core2] x_jk[34,Core3] x_jk[34,Core4] x_jk[34,Core5] x_jk[34,Core6]
 x_jk[36,Core1] x_jk[36,Core2] x_jk[36,Core3] x_jk[36,Core4] x_jk[36,Core5]
 x_jk[36,Core6] x_jk[41,Core1] x_jk[41,Core2] x_jk[41,Core3] x_jk[41,Core4]
 x_jk[41,Core5] x_jk[41,Core6] x_jk[42,Core1] x_jk[42,Core2] x_jk[42,Core3]
 x_jk[42,Core4] x_jk[42,Core5] x_jk[42,Core6] x_jk[17,Core1] x_jk[17,Core2]
 x_jk[17,Core3] x_jk[17,Core4] x_jk[17,Core5] x_jk[17,Core6] x_jk[21,Core1]
 x_jk[21,Core2] x_jk[21,Core3] x_jk[21,Core4] x_jk[21,Core5] x_jk[21,Core6]
 x_jk[37,Core1] x_jk[37,Core2] x_jk[37,Core3] x_jk[37,Core4] x_jk[37,Core5]
 x_jk[37,Core6] x_jk[48,Core1] x_jk[48,Core2] x_jk[48,Core3] x_jk[48,Core4]
 x_jk[48,Core5] x_jk[48,Core6] x_jk[9,Core1] x_jk[9,Core2] x_jk[9,Core3]
 x_jk[9,Core4] x_jk[9,Core5] x_jk[9,Core6] x_jk[19,Core1] x_jk[19,Core2]
 x_jk[19,Core3] x_jk[19,Core4] x_jk[19,Core5] x_jk[19,Core6] x_jk[28,Core1]
 x_jk[28,Core2] x_jk[28,Core3] x_jk[28,Core4] x_jk[28,Core5] x_jk[28,Core6]
 x_jk[31,Core1] x_jk[31,Core2] x_jk[31,Core3] x_jk[31,Core4] x_jk[31,Core5]
 x_jk[31,Core6] x_jk[10,Core1] x_jk[10,Core2] x_jk[10,Core3] x_jk[10,Core4]
 x_jk[10,Core5] x_jk[10,Core6] x_jk[43,Core1] x_jk[43,Core2] x_jk[43,Core3]
 x_jk[43,Core4] x_jk[43,Core5] x_jk[43,Core6] x_jk[24,Core1] x_jk[24,Core2]
 x_jk[24,Core3] x_jk[24,Core4] x_jk[24,Core5] x_jk[24,Core6] x_jk[46,Core1]
 x_jk[46,Core2] x_jk[46,Core3] x_jk[46,Core4] x_jk[46,Core5] x_jk[46,Core6]
 x_jk[16,Core1] x_jk[16,Core2] x_jk[16,Core3] x_jk[16,Core4] x_jk[16,Core5]
 x_jk[16,Core6] x_jk[23,Core1] x_jk[23,Core2] x_jk[23,Core3] x_jk[23,Core4]
 x_jk[23,Core5] x_jk[23,Core6] x_jk[39,Core1] x_jk[39,Core2] x_jk[39,Core3]
 x_jk[39,Core4] x_jk[39,Core5] x_jk[39,Core6] x_jk[29,Core1] x_jk[29,Core2]
 x_jk[29,Core3] x_jk[29,Core4] x_jk[29,Core5] x_jk[29,Core6] x_jk[50,Core1]
 x_jk[50,Core2] x_jk[50,Core3] x_jk[50,Core4] x_jk[50,Core5] x_jk[50,Core6]
 x_jk[35,Core1] x_jk[35,Core2] x_jk[35,Core3] x_jk[35,Core4] x_jk[35,Core5]
 x_jk[35,Core6] x_jk[32,Core1] x_jk[32,Core2] x_jk[32,Core3] x_jk[32,Core4]
 x_jk[32,Core5] x_jk[32,Core6] x_jk[47,Core1] x_jk[47,Core2] x_jk[47,Core3]
 x_jk[47,Core4] x_jk[47,Core5] x_jk[47,Core6] x_jk[40,Core1] x_jk[40,Core2]
 x_jk[40,Core3] x_jk[40,Core4] x_jk[40,Core5] x_jk[40,Core6] x_jk[44,Core1]
 x_jk[44,Core2] x_jk[44,Core3] x_jk[44,Core4] x_jk[44,Core5] x_jk[44,Core6]
 x_jk[src,Core1] x_jk[src,Core2] x_jk[src,Core3] x_jk[src,Core4]
 x_jk[src,Core5] x_jk[src,Core6] x_jk[des,Core1] x_jk[des,Core2]
 x_jk[des,Core3] x_jk[des,Core4] x_jk[des,Core5] x_jk[des,Core6]
End
